c Generated map
c Size: 9 * 9, weights in range: 1 to 10, walls: False, with ratio 0.0
c dim 7 of 8
c
p sp 81 144
c graph contains 81 nodes and 144 arcs
c
a 1 10 9
a 10 1 9
a 1 2 1
a 2 1 1
a 2 11 2
a 11 2 2
a 2 3 7
a 3 2 7
a 3 12 5
a 12 3 5
a 3 4 2
a 4 3 2
a 4 13 4
a 13 4 4
a 4 5 3
a 5 4 3
a 5 14 2
a 14 5 2
a 5 6 2
a 6 5 2
a 6 15 2
a 15 6 2
a 6 7 8
a 7 6 8
a 7 16 8
a 16 7 8
a 7 8 10
a 8 7 10
a 8 17 3
a 17 8 3
a 8 9 7
a 9 8 7
a 9 18 6
a 18 9 6
a 10 19 2
a 19 10 2
a 10 11 7
a 11 10 7
a 11 20 3
a 20 11 3
a 11 12 6
a 12 11 6
a 12 21 9
a 21 12 9
a 12 13 8
a 13 12 8
a 13 22 6
a 22 13 6
a 13 14 3
a 14 13 3
a 14 23 6
a 23 14 6
a 14 15 6
a 15 14 6
a 15 24 10
a 24 15 10
a 15 16 9
a 16 15 9
a 16 25 4
a 25 16 4
a 16 17 10
a 17 16 10
a 17 26 4
a 26 17 4
a 17 18 9
a 18 17 9
a 18 27 1
a 27 18 1
a 19 28 9
a 28 19 9
a 19 20 6
a 20 19 6
a 20 29 4
a 29 20 4
a 20 21 8
a 21 20 8
a 21 30 5
a 30 21 5
a 21 22 10
a 22 21 10
a 22 31 1
a 31 22 1
a 22 23 7
a 23 22 7
a 23 32 8
a 32 23 8
a 23 24 2
a 24 23 2
a 24 33 1
a 33 24 1
a 24 25 4
a 25 24 4
a 25 34 4
a 34 25 4
a 25 26 5
a 26 25 5
a 26 35 2
a 35 26 2
a 26 27 2
a 27 26 2
a 27 36 4
a 36 27 4
a 28 37 7
a 37 28 7
a 28 29 5
a 29 28 5
a 29 38 10
a 38 29 10
a 29 30 4
a 30 29 4
a 30 39 1
a 39 30 1
a 30 31 9
a 31 30 9
a 31 40 6
a 40 31 6
a 31 32 4
a 32 31 4
a 32 41 5
a 41 32 5
a 32 33 7
a 33 32 7
a 33 42 4
a 42 33 4
a 33 34 6
a 34 33 6
a 34 43 2
a 43 34 2
a 34 35 9
a 35 34 9
a 35 44 7
a 44 35 7
a 35 36 4
a 36 35 4
a 36 45 9
a 45 36 9
a 37 46 1
a 46 37 1
a 37 38 1
a 38 37 1
a 38 47 4
a 47 38 4
a 38 39 3
a 39 38 3
a 39 48 4
a 48 39 4
a 39 40 5
a 40 39 5
a 40 49 5
a 49 40 5
a 40 41 5
a 41 40 5
a 41 50 4
a 50 41 4
a 41 42 2
a 42 41 2
a 42 51 10
a 51 42 10
a 42 43 10
a 43 42 10
a 43 52 2
a 52 43 2
a 43 44 2
a 44 43 2
a 44 53 6
a 53 44 6
a 44 45 2
a 45 44 2
a 45 54 3
a 54 45 3
a 46 55 2
a 55 46 2
a 46 47 4
a 47 46 4
a 47 56 9
a 56 47 9
a 47 48 1
a 48 47 1
a 48 57 6
a 57 48 6
a 48 49 1
a 49 48 1
a 49 58 3
a 58 49 3
a 49 50 9
a 50 49 9
a 50 59 4
a 59 50 4
a 50 51 4
a 51 50 4
a 51 60 8
a 60 51 8
a 51 52 4
a 52 51 4
a 52 61 2
a 61 52 2
a 52 53 10
a 53 52 10
a 53 62 1
a 62 53 1
a 53 54 8
a 54 53 8
a 54 63 6
a 63 54 6
a 55 64 4
a 64 55 4
a 55 56 4
a 56 55 4
a 56 65 9
a 65 56 9
a 56 57 8
a 57 56 8
a 57 66 2
a 66 57 2
a 57 58 10
a 58 57 10
a 58 67 8
a 67 58 8
a 58 59 9
a 59 58 9
a 59 68 6
a 68 59 6
a 59 60 3
a 60 59 3
a 60 69 5
a 69 60 5
a 60 61 2
a 61 60 2
a 61 70 2
a 70 61 2
a 61 62 8
a 62 61 8
a 62 71 8
a 71 62 8
a 62 63 9
a 63 62 9
a 63 72 2
a 72 63 2
a 64 73 8
a 73 64 8
a 64 65 4
a 65 64 4
a 65 74 10
a 74 65 10
a 65 66 1
a 66 65 1
a 66 75 3
a 75 66 3
a 66 67 1
a 67 66 1
a 67 76 7
a 76 67 7
a 67 68 10
a 68 67 10
a 68 77 7
a 77 68 7
a 68 69 2
a 69 68 2
a 69 78 4
a 78 69 4
a 69 70 3
a 70 69 3
a 70 79 1
a 79 70 1
a 70 71 4
a 71 70 4
a 71 80 9
a 80 71 9
a 71 72 3
a 72 71 3
a 72 81 2
a 81 72 2
a 73 74 6
a 74 73 6
a 74 75 4
a 75 74 4
a 75 76 4
a 76 75 4
a 76 77 6
a 77 76 6
a 77 78 8
a 78 77 8
a 78 79 1
a 79 78 1
a 79 80 2
a 80 79 2
a 80 81 8
a 81 80 8
